words_hard_train/9029.qaiger
aag 160 24 0 1 136
2
4
12
14
18
20
32
34
46
48
60
62
74
76
88
90
190
194
208
224
240
262
286
304
321
6 2 5
8 3 4
10 7 9
16 12 14
22 19 21
24 18 20
26 23 25
28 16 26
30 29 25
36 33 35
38 32 34
40 37 39
42 31 40
44 43 39
50 47 49
52 46 48
54 51 53
56 45 54
58 57 53
64 61 63
66 60 62
68 65 67
70 59 68
72 71 67
78 75 77
80 74 76
82 79 81
84 73 82
86 85 81
92 89 91
94 88 90
96 93 95
98 87 96
100 99 95
102 11 100
104 10 101
106 103 105
108 30 41
110 109 43
112 17 27
114 113 29
116 111 115
118 13 15
120 119 17
122 116 121
124 44 55
126 125 57
128 122 127
130 58 69
132 131 71
134 128 133
136 72 83
138 137 85
140 134 139
142 86 97
144 143 99
146 141 144
148 120 27
150 148 111
152 123 126
154 153 129
156 150 154
158 156 133
160 158 139
162 147 160
164 140 145
166 163 165
168 106 167
170 107 166
172 169 171
174 157 129
176 174 132
178 135 159
180 177 178
182 151 155
184 183 157
186 110 114
188 187 117
192 120 191
196 192 195
198 190 194
200 197 199
202 193 194
204 203 115
206 200 205
210 199 209
212 198 208
214 211 213
216 207 215
218 188 217
220 206 214
222 219 221
226 213 225
228 212 224
230 227 229
232 222 231
234 184 233
236 223 230
238 235 237
242 229 241
244 228 240
246 243 245
248 239 246
250 181 249
252 238 247
254 251 253
256 178 139
258 179 138
260 257 259
264 245 263
266 244 262
268 265 267
270 261 268
272 255 271
274 260 269
276 273 275
278 165 147
280 279 161
282 278 160
284 281 283
288 267 287
290 266 286
292 289 291
294 284 292
296 277 295
298 285 293
300 297 299
302 173 300
306 290 305
308 302 306
310 303 307
312 291 304
314 172 301
316 313 315
318 310 317
320 309 319
i0 1 x2[7]
i1 2 y2[7]
i2 1 x2[0]
i3 2 y2[0]
i4 1 x2[1]
i5 2 y2[1]
i6 1 x2[2]
i7 2 y2[2]
i8 1 x2[3]
i9 2 y2[3]
i10 1 x2[4]
i11 2 y2[4]
i12 1 x2[5]
i13 2 y2[5]
i14 1 x2[6]
i15 2 y2[6]
i16 1 x1[0]
i17 1 x1[1]
i18 1 x1[2]
i19 1 x1[3]
i20 1 x1[4]
i21 1 x1[5]
i22 1 x1[6]
i23 1 x1[7]
o0 bv[0]
c
simplified
  >
    invert
      1 x1
    subtract
      1
      add
        1 x2
        2 y2
