words_hard_train/9029.qaiger.qdimacs
p cnf 160 409
a 1 97 131 37 6 104 9 44 143 16 112 23 120 152 30 95 0
e 2 3 4 5 7 8 10 11 12 13 14 15 17 18 19 20 21 22 24 25 26 27 28 29 31 32 33 34 35 36 38 39 40 41 42 43 45 46 47 48 49 50 51 52 53 54 55 56 57 58 59 60 61 62 63 64 65 66 67 68 69 70 71 72 73 74 75 76 77 78 79 80 81 82 83 84 85 86 87 88 89 90 91 92 93 94 96 98 99 100 101 102 103 105 106 107 108 109 110 111 113 114 115 116 117 118 119 121 122 123 124 125 126 127 128 129 130 132 133 134 135 136 137 138 139 140 141 142 144 145 146 147 148 149 150 151 153 154 155 156 157 158 159 160 0
-1 2 3 0
1 -3 0
-2 -3 0
1 -2 4 0
-1 -4 0
2 -4 0
3 4 5 0
-3 -5 0
-4 -5 0
-6 -7 8 0
6 -8 0
7 -8 0
9 10 11 0
-9 -11 0
-10 -11 0
-9 -10 12 0
9 -12 0
10 -12 0
11 12 13 0
-11 -13 0
-12 -13 0
-8 -13 14 0
8 -14 0
13 -14 0
14 12 15 0
-14 -15 0
-12 -15 0
16 17 18 0
-16 -18 0
-17 -18 0
-16 -17 19 0
16 -19 0
17 -19 0
18 19 20 0
-18 -20 0
-19 -20 0
15 -20 21 0
-15 -21 0
20 -21 0
21 19 22 0
-21 -22 0
-19 -22 0
23 24 25 0
-23 -25 0
-24 -25 0
-23 -24 26 0
23 -26 0
24 -26 0
25 26 27 0
-25 -27 0
-26 -27 0
22 -27 28 0
-22 -28 0
27 -28 0
28 26 29 0
-28 -29 0
-26 -29 0
30 31 32 0
-30 -32 0
-31 -32 0
-30 -31 33 0
30 -33 0
31 -33 0
32 33 34 0
-32 -34 0
-33 -34 0
29 -34 35 0
-29 -35 0
34 -35 0
35 33 36 0
-35 -36 0
-33 -36 0
37 38 39 0
-37 -39 0
-38 -39 0
-37 -38 40 0
37 -40 0
38 -40 0
39 40 41 0
-39 -41 0
-40 -41 0
36 -41 42 0
-36 -42 0
41 -42 0
42 40 43 0
-42 -43 0
-40 -43 0
44 45 46 0
-44 -46 0
-45 -46 0
-44 -45 47 0
44 -47 0
45 -47 0
46 47 48 0
-46 -48 0
-47 -48 0
43 -48 49 0
-43 -49 0
48 -49 0
49 47 50 0
-49 -50 0
-47 -50 0
5 -50 51 0
-5 -51 0
50 -51 0
-5 50 52 0
5 -52 0
-50 -52 0
51 52 53 0
-51 -53 0
-52 -53 0
-15 20 54 0
15 -54 0
-20 -54 0
54 21 55 0
-54 -55 0
-21 -55 0
8 13 56 0
-8 -56 0
-13 -56 0
56 14 57 0
-56 -57 0
-14 -57 0
55 57 58 0
-55 -58 0
-57 -58 0
6 7 59 0
-6 -59 0
-7 -59 0
59 8 60 0
-59 -60 0
-8 -60 0
-58 60 61 0
58 -61 0
-60 -61 0
-22 27 62 0
22 -62 0
-27 -62 0
62 28 63 0
-62 -63 0
-28 -63 0
-61 63 64 0
61 -64 0
-63 -64 0
-29 34 65 0
29 -65 0
-34 -65 0
65 35 66 0
-65 -66 0
-35 -66 0
-64 66 67 0
64 -67 0
-66 -67 0
-36 41 68 0
36 -68 0
-41 -68 0
68 42 69 0
-68 -69 0
-42 -69 0
-67 69 70 0
67 -70 0
-69 -70 0
-43 48 71 0
43 -71 0
-48 -71 0
71 49 72 0
-71 -72 0
-49 -72 0
70 -72 73 0
-70 -73 0
72 -73 0
-60 13 74 0
60 -74 0
-13 -74 0
-74 55 75 0
74 -75 0
-55 -75 0
61 -63 76 0
-61 -76 0
63 -76 0
76 64 77 0
-76 -77 0
-64 -77 0
-75 -77 78 0
75 -78 0
77 -78 0
-78 66 79 0
78 -79 0
-66 -79 0
-79 69 80 0
79 -80 0
-69 -80 0
73 -80 81 0
-73 -81 0
80 -81 0
-70 72 82 0
70 -82 0
-72 -82 0
81 82 83 0
-81 -83 0
-82 -83 0
-53 83 84 0
53 -84 0
-83 -84 0
53 -83 85 0
-53 -85 0
83 -85 0
84 85 86 0
-84 -86 0
-85 -86 0
78 64 87 0
-78 -87 0
-64 -87 0
-87 -66 88 0
87 -88 0
66 -88 0
67 79 89 0
-67 -89 0
-79 -89 0
88 -89 90 0
-88 -90 0
89 -90 0
75 77 91 0
-75 -91 0
-77 -91 0
91 78 92 0
-91 -92 0
-78 -92 0
-55 -57 93 0
55 -93 0
57 -93 0
93 58 94 0
-93 -94 0
-58 -94 0
-60 95 96 0
60 -96 0
-95 -96 0
-96 97 98 0
96 -98 0
-97 -98 0
-95 -97 99 0
95 -99 0
97 -99 0
98 99 100 0
-98 -100 0
-99 -100 0
96 -97 101 0
-96 -101 0
97 -101 0
101 57 102 0
-101 -102 0
-57 -102 0
-100 102 103 0
100 -103 0
-102 -103 0
99 104 105 0
-99 -105 0
-104 -105 0
-99 -104 106 0
99 -106 0
104 -106 0
105 106 107 0
-105 -107 0
-106 -107 0
103 107 108 0
-103 -108 0
-107 -108 0
-94 108 109 0
94 -109 0
-108 -109 0
-103 -107 110 0
103 -110 0
107 -110 0
109 110 111 0
-109 -111 0
-110 -111 0
106 112 113 0
-106 -113 0
-112 -113 0
-106 -112 114 0
106 -114 0
112 -114 0
113 114 115 0
-113 -115 0
-114 -115 0
-111 115 116 0
111 -116 0
-115 -116 0
-92 116 117 0
92 -117 0
-116 -117 0
111 -115 118 0
-111 -118 0
115 -118 0
117 118 119 0
-117 -119 0
-118 -119 0
114 120 121 0
-114 -121 0
-120 -121 0
-114 -120 122 0
114 -122 0
120 -122 0
121 122 123 0
-121 -123 0
-122 -123 0
119 -123 124 0
-119 -124 0
123 -124 0
90 124 125 0
-90 -125 0
-124 -125 0
-119 123 126 0
119 -126 0
-123 -126 0
125 126 127 0
-125 -127 0
-126 -127 0
-89 69 128 0
89 -128 0
-69 -128 0
89 -69 129 0
-89 -129 0
69 -129 0
128 129 130 0
-128 -130 0
-129 -130 0
122 131 132 0
-122 -132 0
-131 -132 0
-122 -131 133 0
122 -133 0
131 -133 0
132 133 134 0
-132 -134 0
-133 -134 0
130 -134 135 0
-130 -135 0
134 -135 0
127 135 136 0
-127 -136 0
-135 -136 0
-130 134 137 0
130 -137 0
-134 -137 0
136 137 138 0
-136 -138 0
-137 -138 0
82 73 139 0
-82 -139 0
-73 -139 0
139 80 140 0
-139 -140 0
-80 -140 0
-139 -80 141 0
139 -141 0
80 -141 0
140 141 142 0
-140 -142 0
-141 -142 0
133 143 144 0
-133 -144 0
-143 -144 0
-133 -143 145 0
133 -145 0
143 -145 0
144 145 146 0
-144 -146 0
-145 -146 0
-142 -146 147 0
142 -147 0
146 -147 0
138 147 148 0
-138 -148 0
-147 -148 0
142 146 149 0
-142 -149 0
-146 -149 0
148 149 150 0
-148 -150 0
-149 -150 0
86 -150 151 0
-86 -151 0
150 -151 0
-145 152 153 0
145 -153 0
-152 -153 0
-151 -153 154 0
151 -154 0
153 -154 0
151 153 155 0
-151 -155 0
-153 -155 0
145 -152 156 0
-145 -156 0
152 -156 0
-86 150 157 0
86 -157 0
-150 -157 0
156 157 158 0
-156 -158 0
-157 -158 0
-155 158 159 0
155 -159 0
-158 -159 0
154 159 160 0
-154 -160 0
-159 -160 0
-160 0
